Traveling Salesman Problem/TSP_generados/Aleatorio1621103369_12.tsp
NAME: Aleatorio1621103369_12.tsp
COMMENT: Randomly generated scenario
TYPE: TSP
DIMENSION: 12
EDGE_WEIGHT_TYPE: ATT
NODE_COORD_SECTION
1 29.78 46.63
2 10.17 16.23
3 33.24 47.32
4 33.04 14.33
5 41.92 42.57
6 21.3 43.59
7 39.09 42.21
8 13.92 36.47
9 46.9 35.93
10 46.29 25.94
11 43.33 11.53
12 38.54 24.36
