Traveling Salesman Problem/TSP_generados/Aleatorio1621103369_12.opt.tour
NAME: Aleatorio1621103369_12.opt.tour
COMMENT: Optimal solution for Aleatorio1621103369_12 (127.52203269615995)
TYPE: TOUR
DIMENSION: 12
TOUR_SECTION
1 6 8 2 4 11 12 10 9 5 7 3
-1
EOF
